program_setup_time=600;
sequence_setup_time=300;
max_colors_per_job=2;
min_cycles_per_job=2;
max_cycles_per_job=30;
max_jobs=15;
num_colors=1;
num_programs=1;
num_moulds=1;
num_demands=1;
num_lines=1;
reference_makespan=28140;
reference_tardiness=664219;
reference_waste=11;
available_moulds=[12];
slots_per_program=[7];
cycle_time_for_program=[3060];
program_for_mould=[1];
line_for_mould=[1];
color_compatibility=array2d(colors, colors, [1]);
demand_qty=[52];
demand_duedate=[-636079];
demand_color=[1];
demand_mould=[1];
